Mack/Bortfeldt(2008)
Bin-Packing-Problem
BP-RG/SBSBPP/SSSCSP
Testcase-ID	3
Problem-ID	13
no_item_types	5
no_items	1630
CONTAINER_DATA (l,w,h)	485	131	118
ITEMS_DATA:
Type	x	y	z	no_items
1	102	78	39	306
2	97	81	27	336
3	113	46	36	316
4	66	50	42	358
5	101	30	26	314
